unsat
(:arith-conflicts     1
 :arith-lower         9
 :arith-make-feasible 1
 :arith-max-columns   39
 :arith-max-rows      15
 :arith-upper         26
 :conflicts           1
 :max-memory          19.07
 :memory              18.62
 :mk-bool-var         35
 :num-allocs          112091
 :num-checks          1
 :rlimit-count        3501
 :time                0.00
 :total-time          0.02)
